
  22   10
  10   10   10   10   10   10   10   10   10   10

   0   0   0   0   0   0   0   0   0   0   0   1 2 
   5   0   0   0   0   0   0  10   0   0   0   1 3 
   5   0   0   0   0   0   0   0  10   0   0   1 4 
   3   0   0   0   0   0  10   0   0   0   0   1 5 
   7   0   0   0  10   0   0   0   0   0   0   1 6 
   1   0   0  10   0   0   0   0   0   0   0   1 7 
   2   0   0  10   0   0   0   0   0   0   0   2 12 8 
   5   0   0  10   0   0   0   0   0   0   0   1 9 
   2   0   0   0   0   0   0   0   0  10   0   1 10 
   2   0   0   0   0   0   0   0   0  10   0   1 11 
   2   0   0   0   0   0   0   0   0  10   0   1 13 
   3   0   0  10   0   0   0   0   0   0   0   1 13 
   6   0   0   0   0   0   0   0   0   0  10   1 14 
   4   0   0   0   0   0   0  10   0   0   0   1 15 
   2   0   0   0   0   0   0   0  10   0   0   2 20 16 
  10   0   0  10   0   0   0   0   0   0   0   1 17 
   6   0   0   0   0   0   0  10   0   0   0   1 18 
   6   0   0   0   0   0   0   0  10   0   0   1 19 
   8   0   0   0   0   0   0   0  10   0   0   1 21 
   2   0   0   0   0   0   0   0  10   0   0   1 21 
  10  10   0   0   0   0   0   0   0   0   0   1 22
   0   0   0   0   0   0   0   0   0   0   0   0 
